c Result of efficient AIG-to-CNF conversion using package CNF
p cnf 311 1090
-2 3 96 200 204 0
-2 -3 -96 200 204 0
2 -200 0
2 3 -96 0
2 -204 0
2 -3 96 0
3 4 -93 0
3 -4 93 0
-3 -4 -93 0
-3 4 93 0
4 -248 -5 0
4 -5 -34 0
4 -248 -34 0
-4 248 34 0
-4 5 34 0
-4 248 5 0
5 280 -6 0
5 -280 6 0
-5 -280 -6 0
-5 280 6 0
6 -281 -7 0
-6 281 0
-6 7 0
7 -282 -8 0
-7 282 0
-7 8 0
8 -283 -9 0
-8 283 0
-8 9 0
9 -284 -10 0
-9 284 0
-9 10 0
10 -285 -11 0
-10 285 0
-10 11 0
11 -286 -12 0
-11 286 0
-11 12 0
12 -287 -13 0
-12 287 0
-12 13 0
13 -288 -14 0
-13 288 0
-13 14 0
14 -289 -15 0
-14 289 0
-14 15 0
15 -290 -16 0
-15 290 0
-15 16 0
16 -291 -17 0
-16 291 0
-16 17 0
17 -292 -18 0
-17 292 0
-17 18 0
18 -293 -19 0
-18 293 0
-18 19 0
19 -294 -20 0
-19 294 0
-19 20 0
20 -295 -21 0
-20 295 0
-20 21 0
21 -296 -22 0
-21 296 0
-21 22 0
22 -297 -23 0
-22 297 0
-22 23 0
23 -298 -24 0
-23 298 0
-23 24 0
24 -299 -25 0
-24 299 0
-24 25 0
25 -300 -26 0
-25 300 0
-25 26 0
26 -301 -27 0
-26 301 0
-26 27 0
27 -302 -28 0
-27 302 0
-27 28 0
28 -303 -29 0
-28 303 0
-28 29 0
29 -304 -30 0
-29 304 0
-29 30 0
30 -305 -31 0
-30 305 0
-30 31 0
31 -306 -32 0
-31 306 0
-31 32 0
32 -307 -33 0
-32 307 0
-32 33 0
33 -308 -309 -310 0
-33 308 0
-33 309 0
-33 310 0
34 -249 -35 0
34 -35 -36 0
34 -249 -36 0
-34 249 36 0
-34 35 36 0
-34 249 35 0
35 281 -7 0
35 -281 7 0
-35 -281 -7 0
-35 281 7 0
36 -250 -37 0
36 -37 -38 0
36 -250 -38 0
-36 250 38 0
-36 37 38 0
-36 250 37 0
37 282 -8 0
37 -282 8 0
-37 -282 -8 0
-37 282 8 0
38 -251 -39 0
38 -39 -40 0
38 -251 -40 0
-38 251 40 0
-38 39 40 0
-38 251 39 0
39 283 -9 0
39 -283 9 0
-39 -283 -9 0
-39 283 9 0
40 -252 -41 0
40 -41 -42 0
40 -252 -42 0
-40 252 42 0
-40 41 42 0
-40 252 41 0
41 284 -10 0
41 -284 10 0
-41 -284 -10 0
-41 284 10 0
42 -253 -43 0
42 -43 -44 0
42 -253 -44 0
-42 253 44 0
-42 43 44 0
-42 253 43 0
43 285 -11 0
43 -285 11 0
-43 -285 -11 0
-43 285 11 0
44 -254 -45 0
44 -45 -46 0
44 -254 -46 0
-44 254 46 0
-44 45 46 0
-44 254 45 0
45 286 -12 0
45 -286 12 0
-45 -286 -12 0
-45 286 12 0
46 -255 -47 0
46 -47 -48 0
46 -255 -48 0
-46 255 48 0
-46 47 48 0
-46 255 47 0
47 287 -13 0
47 -287 13 0
-47 -287 -13 0
-47 287 13 0
48 -256 -49 0
48 -49 -50 0
48 -256 -50 0
-48 256 50 0
-48 49 50 0
-48 256 49 0
49 288 -14 0
49 -288 14 0
-49 -288 -14 0
-49 288 14 0
50 -257 -51 0
50 -51 -52 0
50 -257 -52 0
-50 257 52 0
-50 51 52 0
-50 257 51 0
51 289 -15 0
51 -289 15 0
-51 -289 -15 0
-51 289 15 0
52 -258 -53 0
52 -53 -54 0
52 -258 -54 0
-52 258 54 0
-52 53 54 0
-52 258 53 0
53 290 -16 0
53 -290 16 0
-53 -290 -16 0
-53 290 16 0
54 -259 -55 0
54 -55 -56 0
54 -259 -56 0
-54 259 56 0
-54 55 56 0
-54 259 55 0
55 291 -17 0
55 -291 17 0
-55 -291 -17 0
-55 291 17 0
56 -260 -57 0
56 -57 -58 0
56 -260 -58 0
-56 260 58 0
-56 57 58 0
-56 260 57 0
57 292 -18 0
57 -292 18 0
-57 -292 -18 0
-57 292 18 0
58 -261 -59 0
58 -59 -60 0
58 -261 -60 0
-58 261 60 0
-58 59 60 0
-58 261 59 0
59 293 -19 0
59 -293 19 0
-59 -293 -19 0
-59 293 19 0
60 -262 -61 0
60 -61 -62 0
60 -262 -62 0
-60 262 62 0
-60 61 62 0
-60 262 61 0
61 294 -20 0
61 -294 20 0
-61 -294 -20 0
-61 294 20 0
62 -263 -63 0
62 -63 -64 0
62 -263 -64 0
-62 263 64 0
-62 63 64 0
-62 263 63 0
63 295 -21 0
63 -295 21 0
-63 -295 -21 0
-63 295 21 0
64 -264 -65 0
64 -65 -66 0
64 -264 -66 0
-64 264 66 0
-64 65 66 0
-64 264 65 0
65 296 -22 0
65 -296 22 0
-65 -296 -22 0
-65 296 22 0
66 -265 -67 0
66 -67 -68 0
66 -265 -68 0
-66 265 68 0
-66 67 68 0
-66 265 67 0
67 297 -23 0
67 -297 23 0
-67 -297 -23 0
-67 297 23 0
68 -266 -69 0
68 -69 -70 0
68 -266 -70 0
-68 266 70 0
-68 69 70 0
-68 266 69 0
69 298 -24 0
69 -298 24 0
-69 -298 -24 0
-69 298 24 0
70 -267 -71 0
70 -71 -72 0
70 -267 -72 0
-70 267 72 0
-70 71 72 0
-70 267 71 0
71 299 -25 0
71 -299 25 0
-71 -299 -25 0
-71 299 25 0
72 -268 -73 0
72 -73 -74 0
72 -268 -74 0
-72 268 74 0
-72 73 74 0
-72 268 73 0
73 300 -26 0
73 -300 26 0
-73 -300 -26 0
-73 300 26 0
74 -269 -75 0
74 -75 -76 0
74 -269 -76 0
-74 269 76 0
-74 75 76 0
-74 269 75 0
75 301 -27 0
75 -301 27 0
-75 -301 -27 0
-75 301 27 0
76 -270 -77 0
76 -77 -78 0
76 -270 -78 0
-76 270 78 0
-76 77 78 0
-76 270 77 0
77 302 -28 0
77 -302 28 0
-77 -302 -28 0
-77 302 28 0
78 -271 -79 0
78 -79 -80 0
78 -271 -80 0
-78 271 80 0
-78 79 80 0
-78 271 79 0
79 303 -29 0
79 -303 29 0
-79 -303 -29 0
-79 303 29 0
80 -272 -81 0
80 -81 -82 0
80 -272 -82 0
-80 272 82 0
-80 81 82 0
-80 272 81 0
81 304 -30 0
81 -304 30 0
-81 -304 -30 0
-81 304 30 0
82 -273 -83 0
82 -83 -84 0
82 -273 -84 0
-82 273 84 0
-82 83 84 0
-82 273 83 0
83 305 -31 0
83 -305 31 0
-83 -305 -31 0
-83 305 31 0
84 -274 -85 0
84 -85 -86 0
84 -274 -86 0
-84 274 86 0
-84 85 86 0
-84 274 85 0
85 306 -32 0
85 -306 32 0
-85 -306 -32 0
-85 306 32 0
86 -275 -87 0
86 -87 -88 0
86 -275 -88 0
-86 275 88 0
-86 87 88 0
-86 275 87 0
87 307 -33 0
87 -307 33 0
-87 -307 -33 0
-87 307 33 0
88 -276 308 -90 0
88 -276 -308 89 0
88 -276 308 -89 0
88 -308 89 -90 0
-88 -308 -89 0
-88 308 89 90 0
-88 276 90 0
-88 276 308 0
89 -309 -310 0
-89 309 0
-89 310 0
-90 277 91 0
-90 309 91 0
90 -91 0
90 -277 -309 0
91 -278 -92 0
91 -310 -92 0
-91 92 0
-91 278 310 0
-92 277 309 0
92 -277 0
92 -309 0
93 -94 95 0
93 94 -95 0
-93 94 95 0
-93 -94 -95 0
94 -280 -6 0
-94 280 0
-94 6 0
-95 -247 -279 0
-95 247 279 0
95 247 -279 0
95 -247 279 0
96 97 -198 0
96 -97 198 0
-96 -97 -198 0
-96 97 198 0
97 -98 -195 0
-97 98 0
-97 195 0
98 -99 -192 0
-98 99 0
-98 192 0
99 -100 -189 0
-99 100 0
-99 189 0
100 -101 -186 0
-100 101 0
-100 186 0
101 -102 -183 0
-101 102 0
-101 183 0
102 -103 -180 0
-102 103 0
-102 180 0
103 -104 -177 0
-103 104 0
-103 177 0
104 -105 -174 0
-104 105 0
-104 174 0
105 -106 -171 0
-105 106 0
-105 171 0
106 -107 -168 0
-106 107 0
-106 168 0
107 -108 -165 0
-107 108 0
-107 165 0
108 -109 -162 0
-108 109 0
-108 162 0
109 -110 157 -158 -159 0
109 -110 -157 158 -159 0
-109 159 0
-109 -157 -158 0
-109 110 0
-109 157 158 0
110 -111 152 -153 -154 0
110 -111 -152 153 -154 0
-110 154 0
-110 -152 -153 0
-110 111 0
-110 152 153 0
111 -112 147 -148 -149 0
111 -112 -147 148 -149 0
-111 149 0
-111 -147 -148 0
-111 112 0
-111 147 148 0
112 -113 142 -143 -144 0
112 -113 -142 143 -144 0
-112 144 0
-112 -142 -143 0
-112 113 0
-112 142 143 0
113 -114 137 -138 -139 0
113 -114 -137 138 -139 0
-113 139 0
-113 -137 -138 0
-113 114 0
-113 137 138 0
114 -115 132 -133 -134 0
114 -115 -132 133 -134 0
-114 134 0
-114 -132 -133 0
-114 115 0
-114 132 133 0
115 -116 127 -128 -129 0
115 -116 -127 128 -129 0
-115 129 0
-115 -127 -128 0
-115 116 0
-115 127 128 0
116 -117 -122 125 -126 0
116 -117 -122 -125 126 0
-116 122 0
-116 125 126 0
-116 117 0
-116 -125 -126 0
117 -91 118 120 -121 0
117 -91 118 -120 121 0
-117 -118 0
-117 120 121 0
-117 91 0
-117 -120 -121 0
-118 278 119 0
-118 310 119 0
118 -119 0
118 -278 -310 0
119 -277 -309 0
-119 277 0
-119 309 0
120 276 -308 0
120 -276 308 0
-120 -276 -308 0
-120 276 308 0
121 -277 -118 0
121 -309 -118 0
-121 118 0
-121 277 309 0
122 123 -124 0
122 -123 124 0
-122 -123 -124 0
-122 123 124 0
123 275 -307 0
123 -275 307 0
-123 -275 -307 0
-123 275 307 0
124 -276 -308 0
124 -308 -121 0
124 -276 -121 0
-124 276 121 0
-124 308 121 0
-124 276 308 0
125 274 -306 0
125 -274 306 0
-125 -274 -306 0
-125 274 306 0
126 -275 -307 0
126 -307 -124 0
126 -275 -124 0
-126 275 124 0
-126 307 124 0
-126 275 307 0
127 273 -305 0
127 -273 305 0
-127 -273 -305 0
-127 273 305 0
128 -274 -306 0
128 -306 -126 0
128 -274 -126 0
-128 274 126 0
-128 306 126 0
-128 274 306 0
-129 -130 -131 0
-129 130 131 0
129 130 -131 0
129 -130 131 0
130 272 -304 0
130 -272 304 0
-130 -272 -304 0
-130 272 304 0
131 -273 -305 0
131 -305 -128 0
131 -273 -128 0
-131 273 128 0
-131 305 128 0
-131 273 305 0
132 271 -303 0
132 -271 303 0
-132 -271 -303 0
-132 271 303 0
133 -272 -304 0
133 -304 -131 0
133 -272 -131 0
-133 272 131 0
-133 304 131 0
-133 272 304 0
-134 -135 -136 0
-134 135 136 0
134 135 -136 0
134 -135 136 0
135 270 -302 0
135 -270 302 0
-135 -270 -302 0
-135 270 302 0
136 -271 -303 0
136 -303 -133 0
136 -271 -133 0
-136 271 133 0
-136 303 133 0
-136 271 303 0
137 269 -301 0
137 -269 301 0
-137 -269 -301 0
-137 269 301 0
138 -270 -302 0
138 -302 -136 0
138 -270 -136 0
-138 270 136 0
-138 302 136 0
-138 270 302 0
-139 -140 -141 0
-139 140 141 0
139 140 -141 0
139 -140 141 0
140 268 -300 0
140 -268 300 0
-140 -268 -300 0
-140 268 300 0
141 -269 -301 0
141 -301 -138 0
141 -269 -138 0
-141 269 138 0
-141 301 138 0
-141 269 301 0
142 267 -299 0
142 -267 299 0
-142 -267 -299 0
-142 267 299 0
143 -268 -300 0
143 -300 -141 0
143 -268 -141 0
-143 268 141 0
-143 300 141 0
-143 268 300 0
-144 -145 -146 0
-144 145 146 0
144 145 -146 0
144 -145 146 0
145 266 -298 0
145 -266 298 0
-145 -266 -298 0
-145 266 298 0
146 -267 -299 0
146 -299 -143 0
146 -267 -143 0
-146 267 143 0
-146 299 143 0
-146 267 299 0
147 265 -297 0
147 -265 297 0
-147 -265 -297 0
-147 265 297 0
148 -266 -298 0
148 -298 -146 0
148 -266 -146 0
-148 266 146 0
-148 298 146 0
-148 266 298 0
-149 -150 -151 0
-149 150 151 0
149 150 -151 0
149 -150 151 0
150 264 -296 0
150 -264 296 0
-150 -264 -296 0
-150 264 296 0
151 -265 -297 0
151 -297 -148 0
151 -265 -148 0
-151 265 148 0
-151 297 148 0
-151 265 297 0
152 263 -295 0
152 -263 295 0
-152 -263 -295 0
-152 263 295 0
153 -264 -296 0
153 -296 -151 0
153 -264 -151 0
-153 264 151 0
-153 296 151 0
-153 264 296 0
-154 -155 -156 0
-154 155 156 0
154 155 -156 0
154 -155 156 0
155 262 -294 0
155 -262 294 0
-155 -262 -294 0
-155 262 294 0
156 -263 -295 0
156 -295 -153 0
156 -263 -153 0
-156 263 153 0
-156 295 153 0
-156 263 295 0
157 261 -293 0
157 -261 293 0
-157 -261 -293 0
-157 261 293 0
158 -262 -294 0
158 -294 -156 0
158 -262 -156 0
-158 262 156 0
-158 294 156 0
-158 262 294 0
-159 -160 -161 0
-159 160 161 0
159 160 -161 0
159 -160 161 0
160 260 -292 0
160 -260 292 0
-160 -260 -292 0
-160 260 292 0
161 -261 -293 0
161 -293 -158 0
161 -261 -158 0
-161 261 158 0
-161 293 158 0
-161 261 293 0
-162 -163 -164 0
-162 163 164 0
162 163 -164 0
162 -163 164 0
163 259 -291 0
163 -259 291 0
-163 -259 -291 0
-163 259 291 0
164 -260 -292 0
164 -292 -161 0
164 -260 -161 0
-164 260 161 0
-164 292 161 0
-164 260 292 0
-165 -166 -167 0
-165 166 167 0
165 166 -167 0
165 -166 167 0
166 258 -290 0
166 -258 290 0
-166 -258 -290 0
-166 258 290 0
167 -259 -291 0
167 -291 -164 0
167 -259 -164 0
-167 259 164 0
-167 291 164 0
-167 259 291 0
-168 -169 -170 0
-168 169 170 0
168 169 -170 0
168 -169 170 0
169 257 -289 0
169 -257 289 0
-169 -257 -289 0
-169 257 289 0
170 -258 -290 0
170 -290 -167 0
170 -258 -167 0
-170 258 167 0
-170 290 167 0
-170 258 290 0
-171 -172 -173 0
-171 172 173 0
171 172 -173 0
171 -172 173 0
172 256 -288 0
172 -256 288 0
-172 -256 -288 0
-172 256 288 0
173 -257 -289 0
173 -289 -170 0
173 -257 -170 0
-173 257 170 0
-173 289 170 0
-173 257 289 0
-174 -175 -176 0
-174 175 176 0
174 175 -176 0
174 -175 176 0
175 255 -287 0
175 -255 287 0
-175 -255 -287 0
-175 255 287 0
176 -256 -288 0
176 -288 -173 0
176 -256 -173 0
-176 256 173 0
-176 288 173 0
-176 256 288 0
-177 -178 -179 0
-177 178 179 0
177 178 -179 0
177 -178 179 0
178 254 -286 0
178 -254 286 0
-178 -254 -286 0
-178 254 286 0
179 -255 -287 0
179 -287 -176 0
179 -255 -176 0
-179 255 176 0
-179 287 176 0
-179 255 287 0
-180 -181 -182 0
-180 181 182 0
180 181 -182 0
180 -181 182 0
181 253 -285 0
181 -253 285 0
-181 -253 -285 0
-181 253 285 0
182 -254 -286 0
182 -286 -179 0
182 -254 -179 0
-182 254 179 0
-182 286 179 0
-182 254 286 0
-183 -184 -185 0
-183 184 185 0
183 184 -185 0
183 -184 185 0
184 252 -284 0
184 -252 284 0
-184 -252 -284 0
-184 252 284 0
185 -253 -285 0
185 -285 -182 0
185 -253 -182 0
-185 253 182 0
-185 285 182 0
-185 253 285 0
-186 -187 -188 0
-186 187 188 0
186 187 -188 0
186 -187 188 0
187 251 -283 0
187 -251 283 0
-187 -251 -283 0
-187 251 283 0
188 -252 -284 0
188 -284 -185 0
188 -252 -185 0
-188 252 185 0
-188 284 185 0
-188 252 284 0
-189 -190 -191 0
-189 190 191 0
189 190 -191 0
189 -190 191 0
190 250 -282 0
190 -250 282 0
-190 -250 -282 0
-190 250 282 0
191 -251 -283 0
191 -283 -188 0
191 -251 -188 0
-191 251 188 0
-191 283 188 0
-191 251 283 0
-192 -193 -194 0
-192 193 194 0
192 193 -194 0
192 -193 194 0
193 249 -281 0
193 -249 281 0
-193 -249 -281 0
-193 249 281 0
194 -250 -282 0
194 -282 -191 0
194 -250 -191 0
-194 250 191 0
-194 282 191 0
-194 250 282 0
-195 -196 -197 0
-195 196 197 0
195 196 -197 0
195 -196 197 0
196 248 -280 0
196 -248 280 0
-196 -248 -280 0
-196 248 280 0
197 -249 -281 0
197 -281 -194 0
197 -249 -194 0
-197 249 194 0
-197 281 194 0
-197 249 281 0
198 95 -199 0
198 -95 199 0
-198 -95 -199 0
-198 95 199 0
199 -248 -280 0
199 -280 -197 0
199 -248 -197 0
-199 248 197 0
-199 280 197 0
-199 248 280 0
200 -201 202 0
200 201 -202 0
-200 201 202 0
-200 -201 -202 0
201 -98 195 0
201 98 -195 0
-201 98 195 0
-201 -98 -195 0
-202 -34 -203 0
-202 34 203 0
202 34 -203 0
202 -34 203 0
203 248 -5 0
203 -248 5 0
-203 -248 -5 0
-203 248 5 0
-204 -205 -206 208 212 0
-204 205 206 208 212 0
204 -212 0
204 205 -206 0
204 -208 0
204 -205 206 0
205 -99 192 0
205 99 -192 0
-205 99 192 0
-205 -99 -192 0
-206 -36 -207 0
-206 36 207 0
206 36 -207 0
206 -36 207 0
207 249 -35 0
207 -249 35 0
-207 -249 -35 0
-207 249 35 0
208 -209 210 0
208 209 -210 0
-208 209 210 0
-208 -209 -210 0
209 -100 189 0
209 100 -189 0
-209 100 189 0
-209 -100 -189 0
-210 -38 -211 0
-210 38 211 0
210 38 -211 0
210 -38 211 0
211 250 -37 0
211 -250 37 0
-211 -250 -37 0
-211 250 37 0
-212 -213 -214 216 220 0
-212 213 214 216 220 0
212 -220 0
212 213 -214 0
212 -216 0
212 -213 214 0
213 -101 186 0
213 101 -186 0
-213 101 186 0
-213 -101 -186 0
-214 -40 -215 0
-214 40 215 0
214 40 -215 0
214 -40 215 0
215 251 -39 0
215 -251 39 0
-215 -251 -39 0
-215 251 39 0
216 -217 218 0
216 217 -218 0
-216 217 218 0
-216 -217 -218 0
217 -102 183 0
217 102 -183 0
-217 102 183 0
-217 -102 -183 0
-218 -42 -219 0
-218 42 219 0
218 42 -219 0
218 -42 219 0
219 252 -41 0
219 -252 41 0
-219 -252 -41 0
-219 252 41 0
-220 -221 -222 224 228 0
-220 221 222 224 228 0
220 -228 0
220 221 -222 0
220 -224 0
220 -221 222 0
221 -103 180 0
221 103 -180 0
-221 103 180 0
-221 -103 -180 0
-222 -44 -223 0
-222 44 223 0
222 44 -223 0
222 -44 223 0
223 253 -43 0
223 -253 43 0
-223 -253 -43 0
-223 253 43 0
224 -225 226 0
224 225 -226 0
-224 225 226 0
-224 -225 -226 0
225 -104 177 0
225 104 -177 0
-225 104 177 0
-225 -104 -177 0
-226 -46 -227 0
-226 46 227 0
226 46 -227 0
226 -46 227 0
227 254 -45 0
227 -254 45 0
-227 -254 -45 0
-227 254 45 0
-228 -229 -230 232 236 0
-228 229 230 232 236 0
228 -236 0
228 229 -230 0
228 -232 0
228 -229 230 0
229 -105 174 0
229 105 -174 0
-229 105 174 0
-229 -105 -174 0
-230 -48 -231 0
-230 48 231 0
230 48 -231 0
230 -48 231 0
231 255 -47 0
231 -255 47 0
-231 -255 -47 0
-231 255 47 0
232 -233 234 0
232 233 -234 0
-232 233 234 0
-232 -233 -234 0
233 -106 171 0
233 106 -171 0
-233 106 171 0
-233 -106 -171 0
-234 -50 -235 0
-234 50 235 0
234 50 -235 0
234 -50 235 0
235 256 -49 0
235 -256 49 0
-235 -256 -49 0
-235 256 49 0
-236 237 238 240 0
-236 -237 -238 240 0
236 -240 0
236 237 -238 0
236 -237 238 0
237 -107 168 0
237 107 -168 0
-237 107 168 0
-237 -107 -168 0
-238 -52 -239 0
-238 52 239 0
238 52 -239 0
238 -52 239 0
239 257 -51 0
239 -257 51 0
-239 -257 -51 0
-239 257 51 0
-240 -241 -242 -244 -245 0
-240 241 242 244 245 0
-240 -241 -242 244 245 0
-240 241 242 -244 -245 0
240 -241 242 0
240 241 -242 0
240 244 -245 0
240 -244 245 0
241 -108 165 0
241 108 -165 0
-241 108 165 0
-241 -108 -165 0
-242 -54 -243 0
-242 54 243 0
242 54 -243 0
242 -54 243 0
243 258 -53 0
243 -258 53 0
-243 -258 -53 0
-243 258 53 0
244 -109 162 0
244 109 -162 0
-244 109 162 0
-244 -109 -162 0
-245 -56 -246 0
-245 56 246 0
245 56 -246 0
245 -56 246 0
246 259 -55 0
246 -259 55 0
-246 -259 -55 0
-246 259 55 0
-311 0
2 0

